data/my/0.cnf.opb
* #variable= 6 #constraint= 4 #product= 9 sizeproduct= 6
min: 1 x2 x1 1 x4 x3 1 x6 x5 ;
1 x2 ~x1 1 x4 ~x3 1 x2 x1 x4 x3 >= 1;
1 x1 ~x2 1 x1 x2 >= 1;
1 x3 ~x4 1 x3 x4 >= 1;
1 x6 ~x5 1 x6 x5 >= 1;
